k-points along high symmetry lines
21
Line-mode
Reciprocal
 0.0000000000     0.0000000000     0.5000000000     !Z
 0.0000000000     0.0000000000     0.0000000000     !G

 0.0000000000     0.0000000000     0.0000000000     !G
-0.5000000000     0.0000000000     0.0000000000     !X

-0.5000000000     0.0000000000     0.0000000000     !X
-0.5000000000     0.5000000000     0.0000000000     !M

-0.5000000000     0.5000000000     0.0000000000     !M
 0.0000000000     0.5000000000     0.0000000000     !Y

 0.0000000000     0.5000000000     0.0000000000     !Y
 0.0000000000     0.0000000000     0.0000000000     !G

 0.0000000000     0.0000000000     0.0000000000     !G
-0.5000000000     0.5000000000     0.5000000000     !S

-0.5000000000     0.5000000000     0.5000000000     !S
 0.0000000000     0.5000000000     0.5000000000     !P

 0.0000000000     0.5000000000     0.5000000000     !P
 0.0000000000     0.0000000000     0.5000000000     !Z

 0.0000000000     0.0000000000     0.5000000000     !Z
-0.5000000000     0.0000000000     0.5000000000     !U

-0.5000000000     0.0000000000     0.5000000000     !U
-0.5000000000     0.5000000000     0.5000000000     !S
