TaAs exp struct                         
   1.00000000000000     
     3.4616521193709042    0.0000000000000000    0.0000000000000000
     0.0000000000000000    3.4616521193709042    0.0000000000000000
     0.0000000000000000    0.0000000000000000   11.7171908598054149
   Ta   As
     4     4
Direct
  0.0000000000000000 -0.0000000000000000  0.9995730478046730
  0.5000000000000000  0.5000000000000000  0.4995730478046729
  0.0000000000000000  0.5000000000000000  0.2495730478046730
  0.5000000000000000  0.0000000000000000  0.7495730678046747
 -0.0000000000000000 -0.0000000000000000  0.4174269521953287
  0.5000000000000000  0.5000000000000000  0.9174269521953285
  0.0000000000000000  0.5000000000000000  0.6674269521953285
  0.5000000000000000 -0.0000000000000000  0.1674269521953286
 
  0.00000000E+00  0.00000000E+00  0.00000000E+00
  0.00000000E+00  0.00000000E+00  0.00000000E+00
  0.00000000E+00  0.00000000E+00  0.00000000E+00
  0.00000000E+00  0.00000000E+00  0.00000000E+00
  0.00000000E+00  0.00000000E+00  0.00000000E+00
  0.00000000E+00  0.00000000E+00  0.00000000E+00
  0.00000000E+00  0.00000000E+00  0.00000000E+00
  0.00000000E+00  0.00000000E+00  0.00000000E+00
