num_wann = 32
num_bands = 64
Begin Projections
Ta:l=2
As:l=1
End Projections
#spinors = .true.

dis_num_iter=20000
num_iter=0

dis_froz_max=10
dis_froz_min=5

dis_win_max= 16
dis_win_min= -2
#dis_conv_tol=1.0E-13

restart = plot
hr_plot = true
#fermi_energy = 7.0552
#bands_plot = true
#bands_plot_format gnuplot

begin kpoint_path
Z  0.0000000000     0.0000000000     0.5000000000  G  0.0000000000     0.0000000000     0.0000000000
G  0.0000000000     0.0000000000     0.0000000000  X -0.5000000000     0.0000000000     0.0000000000 
X -0.5000000000     0.0000000000     0.0000000000  M -0.5000000000     0.5000000000     0.0000000000 
M -0.5000000000     0.5000000000     0.0000000000  Y  0.0000000000     0.5000000000     0.0000000000 
Y  0.0000000000     0.5000000000     0.0000000000  G  0.0000000000     0.0000000000     0.0000000000
G  0.0000000000     0.0000000000     0.0000000000  S -0.5000000000     0.5000000000     0.5000000000
S -0.5000000000     0.5000000000     0.5000000000  P  0.0000000000     0.5000000000     0.5000000000
P  0.0000000000     0.5000000000     0.5000000000  Z  0.0000000000     0.0000000000     0.5000000000
Z  0.0000000000     0.0000000000     0.5000000000  U -0.5000000000     0.0000000000     0.5000000000 
U -0.5000000000     0.0000000000     0.5000000000  S -0.5000000000     0.5000000000     0.5000000000
end kpoint_path


begin unit_cell_cart
     3.4616521     0.0000000     0.0000000
     0.0000000     3.4616521     0.0000000
     0.0000000     0.0000000    11.7171909
end unit_cell_cart

begin atoms_cart
Ta       0.0000000     0.0000000    11.7121882
Ta       1.7308261     1.7308261     5.8535927
Ta       0.0000000     1.7308261     2.9242950
Ta       1.7308261     0.0000000     8.7828907
As       0.0000000     0.0000000     4.8910713
As       1.7308261     1.7308261    10.7496667
As       0.0000000     1.7308261     7.8203690
As       1.7308261     0.0000000     1.9617736
end atoms_cart

mp_grid =    10    10     4

begin kpoints
      0.000000000000      0.000000000000      0.000000000000
      0.100000000000      0.000000000000      0.000000000000
      0.200000000000      0.000000000000      0.000000000000
      0.300000000000      0.000000000000      0.000000000000
      0.400000000000      0.000000000000      0.000000000000
      0.500000000000      0.000000000000      0.000000000000
      0.100000000000      0.100000000000      0.000000000000
      0.200000000000      0.100000000000      0.000000000000
      0.300000000000      0.100000000000      0.000000000000
      0.400000000000      0.100000000000      0.000000000000
      0.500000000000      0.100000000000      0.000000000000
      0.200000000000      0.200000000000      0.000000000000
      0.300000000000      0.200000000000      0.000000000000
      0.400000000000      0.200000000000      0.000000000000
      0.500000000000      0.200000000000      0.000000000000
      0.300000000000      0.300000000000      0.000000000000
      0.400000000000      0.300000000000      0.000000000000
      0.500000000000      0.300000000000      0.000000000000
      0.400000000000      0.400000000000      0.000000000000
      0.500000000000      0.400000000000      0.000000000000
      0.500000000000      0.500000000000      0.000000000000
      0.000000000000      0.000000000000      0.250000000000
      0.100000000000      0.000000000000      0.250000000000
      0.200000000000      0.000000000000      0.250000000000
      0.300000000000      0.000000000000      0.250000000000
      0.400000000000      0.000000000000      0.250000000000
      0.500000000000      0.000000000000      0.250000000000
      0.100000000000      0.100000000000      0.250000000000
      0.200000000000      0.100000000000      0.250000000000
      0.300000000000      0.100000000000      0.250000000000
      0.400000000000      0.100000000000      0.250000000000
      0.500000000000      0.100000000000      0.250000000000
      0.200000000000      0.200000000000      0.250000000000
      0.300000000000      0.200000000000      0.250000000000
      0.400000000000      0.200000000000      0.250000000000
      0.500000000000      0.200000000000      0.250000000000
      0.300000000000      0.300000000000      0.250000000000
      0.400000000000      0.300000000000      0.250000000000
      0.500000000000      0.300000000000      0.250000000000
      0.400000000000      0.400000000000      0.250000000000
      0.500000000000      0.400000000000      0.250000000000
      0.500000000000      0.500000000000      0.250000000000
      0.000000000000      0.000000000000      0.500000000000
      0.100000000000      0.000000000000      0.500000000000
      0.200000000000      0.000000000000      0.500000000000
      0.300000000000      0.000000000000      0.500000000000
      0.400000000000      0.000000000000      0.500000000000
      0.500000000000      0.000000000000      0.500000000000
      0.100000000000      0.100000000000      0.500000000000
      0.200000000000      0.100000000000      0.500000000000
      0.300000000000      0.100000000000      0.500000000000
      0.400000000000      0.100000000000      0.500000000000
      0.500000000000      0.100000000000      0.500000000000
      0.200000000000      0.200000000000      0.500000000000
      0.300000000000      0.200000000000      0.500000000000
      0.400000000000      0.200000000000      0.500000000000
      0.500000000000      0.200000000000      0.500000000000
      0.300000000000      0.300000000000      0.500000000000
      0.400000000000      0.300000000000      0.500000000000
      0.500000000000      0.300000000000      0.500000000000
      0.400000000000      0.400000000000      0.500000000000
      0.500000000000      0.400000000000      0.500000000000
      0.500000000000      0.500000000000      0.500000000000
     -0.100000000000      0.000000000000      0.000000000000
      0.000000000000      0.100000000000      0.000000000000
      0.000000000000     -0.100000000000      0.000000000000
     -0.200000000000      0.000000000000      0.000000000000
      0.000000000000      0.200000000000      0.000000000000
      0.000000000000     -0.200000000000      0.000000000000
     -0.300000000000      0.000000000000      0.000000000000
      0.000000000000      0.300000000000      0.000000000000
      0.000000000000     -0.300000000000      0.000000000000
     -0.400000000000      0.000000000000      0.000000000000
      0.000000000000      0.400000000000      0.000000000000
      0.000000000000     -0.400000000000      0.000000000000
      0.000000000000      0.500000000000      0.000000000000
     -0.100000000000     -0.100000000000      0.000000000000
      0.100000000000     -0.100000000000      0.000000000000
     -0.100000000000      0.100000000000      0.000000000000
     -0.200000000000     -0.100000000000      0.000000000000
      0.200000000000     -0.100000000000      0.000000000000
     -0.200000000000      0.100000000000      0.000000000000
     -0.100000000000      0.200000000000      0.000000000000
      0.100000000000     -0.200000000000      0.000000000000
     -0.100000000000     -0.200000000000      0.000000000000
      0.100000000000      0.200000000000      0.000000000000
     -0.300000000000     -0.100000000000      0.000000000000
      0.300000000000     -0.100000000000      0.000000000000
     -0.300000000000      0.100000000000      0.000000000000
     -0.100000000000      0.300000000000      0.000000000000
      0.100000000000     -0.300000000000      0.000000000000
     -0.100000000000     -0.300000000000      0.000000000000
      0.100000000000      0.300000000000      0.000000000000
     -0.400000000000     -0.100000000000      0.000000000000
      0.400000000000     -0.100000000000      0.000000000000
     -0.400000000000      0.100000000000      0.000000000000
     -0.100000000000      0.400000000000      0.000000000000
      0.100000000000     -0.400000000000      0.000000000000
     -0.100000000000     -0.400000000000      0.000000000000
      0.100000000000      0.400000000000      0.000000000000
     -0.500000000000     -0.100000000000      0.000000000000
     -0.100000000000      0.500000000000      0.000000000000
      0.100000000000     -0.500000000000      0.000000000000
     -0.200000000000     -0.200000000000      0.000000000000
      0.200000000000     -0.200000000000      0.000000000000
     -0.200000000000      0.200000000000      0.000000000000
     -0.300000000000     -0.200000000000      0.000000000000
      0.300000000000     -0.200000000000      0.000000000000
     -0.300000000000      0.200000000000      0.000000000000
     -0.200000000000      0.300000000000      0.000000000000
      0.200000000000     -0.300000000000      0.000000000000
     -0.200000000000     -0.300000000000      0.000000000000
      0.200000000000      0.300000000000      0.000000000000
     -0.400000000000     -0.200000000000      0.000000000000
      0.400000000000     -0.200000000000      0.000000000000
     -0.400000000000      0.200000000000      0.000000000000
     -0.200000000000      0.400000000000      0.000000000000
      0.200000000000     -0.400000000000      0.000000000000
     -0.200000000000     -0.400000000000      0.000000000000
      0.200000000000      0.400000000000      0.000000000000
     -0.500000000000     -0.200000000000      0.000000000000
     -0.200000000000      0.500000000000      0.000000000000
      0.200000000000     -0.500000000000      0.000000000000
     -0.300000000000     -0.300000000000      0.000000000000
      0.300000000000     -0.300000000000      0.000000000000
     -0.300000000000      0.300000000000      0.000000000000
     -0.400000000000     -0.300000000000      0.000000000000
      0.400000000000     -0.300000000000      0.000000000000
     -0.400000000000      0.300000000000      0.000000000000
     -0.300000000000      0.400000000000      0.000000000000
      0.300000000000     -0.400000000000      0.000000000000
     -0.300000000000     -0.400000000000      0.000000000000
      0.300000000000      0.400000000000      0.000000000000
     -0.500000000000     -0.300000000000      0.000000000000
     -0.300000000000      0.500000000000      0.000000000000
      0.300000000000     -0.500000000000      0.000000000000
     -0.400000000000     -0.400000000000      0.000000000000
      0.400000000000     -0.400000000000      0.000000000000
     -0.400000000000      0.400000000000      0.000000000000
     -0.500000000000     -0.400000000000      0.000000000000
     -0.400000000000      0.500000000000      0.000000000000
      0.400000000000     -0.500000000000      0.000000000000
     -0.100000000000      0.000000000000      0.250000000000
      0.000000000000      0.100000000000      0.250000000000
      0.000000000000     -0.100000000000      0.250000000000
     -0.200000000000      0.000000000000      0.250000000000
      0.000000000000      0.200000000000      0.250000000000
      0.000000000000     -0.200000000000      0.250000000000
     -0.300000000000      0.000000000000      0.250000000000
      0.000000000000      0.300000000000      0.250000000000
      0.000000000000     -0.300000000000      0.250000000000
     -0.400000000000      0.000000000000      0.250000000000
      0.000000000000      0.400000000000      0.250000000000
      0.000000000000     -0.400000000000      0.250000000000
      0.000000000000      0.500000000000      0.250000000000
     -0.100000000000     -0.100000000000      0.250000000000
      0.100000000000     -0.100000000000      0.250000000000
     -0.100000000000      0.100000000000      0.250000000000
     -0.200000000000     -0.100000000000      0.250000000000
      0.200000000000     -0.100000000000      0.250000000000
     -0.200000000000      0.100000000000      0.250000000000
     -0.100000000000      0.200000000000      0.250000000000
      0.100000000000     -0.200000000000      0.250000000000
     -0.100000000000     -0.200000000000      0.250000000000
      0.100000000000      0.200000000000      0.250000000000
     -0.300000000000     -0.100000000000      0.250000000000
      0.300000000000     -0.100000000000      0.250000000000
     -0.300000000000      0.100000000000      0.250000000000
     -0.100000000000      0.300000000000      0.250000000000
      0.100000000000     -0.300000000000      0.250000000000
     -0.100000000000     -0.300000000000      0.250000000000
      0.100000000000      0.300000000000      0.250000000000
     -0.400000000000     -0.100000000000      0.250000000000
      0.400000000000     -0.100000000000      0.250000000000
     -0.400000000000      0.100000000000      0.250000000000
     -0.100000000000      0.400000000000      0.250000000000
      0.100000000000     -0.400000000000      0.250000000000
     -0.100000000000     -0.400000000000      0.250000000000
      0.100000000000      0.400000000000      0.250000000000
     -0.500000000000     -0.100000000000      0.250000000000
     -0.100000000000      0.500000000000      0.250000000000
      0.100000000000     -0.500000000000      0.250000000000
     -0.200000000000     -0.200000000000      0.250000000000
      0.200000000000     -0.200000000000      0.250000000000
     -0.200000000000      0.200000000000      0.250000000000
     -0.300000000000     -0.200000000000      0.250000000000
      0.300000000000     -0.200000000000      0.250000000000
     -0.300000000000      0.200000000000      0.250000000000
     -0.200000000000      0.300000000000      0.250000000000
      0.200000000000     -0.300000000000      0.250000000000
     -0.200000000000     -0.300000000000      0.250000000000
      0.200000000000      0.300000000000      0.250000000000
     -0.400000000000     -0.200000000000      0.250000000000
      0.400000000000     -0.200000000000      0.250000000000
     -0.400000000000      0.200000000000      0.250000000000
     -0.200000000000      0.400000000000      0.250000000000
      0.200000000000     -0.400000000000      0.250000000000
     -0.200000000000     -0.400000000000      0.250000000000
      0.200000000000      0.400000000000      0.250000000000
     -0.500000000000     -0.200000000000      0.250000000000
     -0.200000000000      0.500000000000      0.250000000000
      0.200000000000     -0.500000000000      0.250000000000
     -0.300000000000     -0.300000000000      0.250000000000
      0.300000000000     -0.300000000000      0.250000000000
     -0.300000000000      0.300000000000      0.250000000000
     -0.400000000000     -0.300000000000      0.250000000000
      0.400000000000     -0.300000000000      0.250000000000
     -0.400000000000      0.300000000000      0.250000000000
     -0.300000000000      0.400000000000      0.250000000000
      0.300000000000     -0.400000000000      0.250000000000
     -0.300000000000     -0.400000000000      0.250000000000
      0.300000000000      0.400000000000      0.250000000000
     -0.500000000000     -0.300000000000      0.250000000000
     -0.300000000000      0.500000000000      0.250000000000
      0.300000000000     -0.500000000000      0.250000000000
     -0.400000000000     -0.400000000000      0.250000000000
      0.400000000000     -0.400000000000      0.250000000000
     -0.400000000000      0.400000000000      0.250000000000
     -0.500000000000     -0.400000000000      0.250000000000
     -0.400000000000      0.500000000000      0.250000000000
      0.400000000000     -0.500000000000      0.250000000000
     -0.100000000000      0.000000000000      0.500000000000
      0.000000000000      0.100000000000      0.500000000000
      0.000000000000     -0.100000000000      0.500000000000
     -0.200000000000      0.000000000000      0.500000000000
      0.000000000000      0.200000000000      0.500000000000
      0.000000000000     -0.200000000000      0.500000000000
     -0.300000000000      0.000000000000      0.500000000000
      0.000000000000      0.300000000000      0.500000000000
      0.000000000000     -0.300000000000      0.500000000000
     -0.400000000000      0.000000000000      0.500000000000
      0.000000000000      0.400000000000      0.500000000000
      0.000000000000     -0.400000000000      0.500000000000
      0.000000000000      0.500000000000      0.500000000000
     -0.100000000000     -0.100000000000      0.500000000000
      0.100000000000     -0.100000000000      0.500000000000
     -0.100000000000      0.100000000000      0.500000000000
     -0.200000000000     -0.100000000000      0.500000000000
      0.200000000000     -0.100000000000      0.500000000000
     -0.200000000000      0.100000000000      0.500000000000
     -0.100000000000      0.200000000000      0.500000000000
      0.100000000000     -0.200000000000      0.500000000000
     -0.100000000000     -0.200000000000      0.500000000000
      0.100000000000      0.200000000000      0.500000000000
     -0.300000000000     -0.100000000000      0.500000000000
      0.300000000000     -0.100000000000      0.500000000000
     -0.300000000000      0.100000000000      0.500000000000
     -0.100000000000      0.300000000000      0.500000000000
      0.100000000000     -0.300000000000      0.500000000000
     -0.100000000000     -0.300000000000      0.500000000000
      0.100000000000      0.300000000000      0.500000000000
     -0.400000000000     -0.100000000000      0.500000000000
      0.400000000000     -0.100000000000      0.500000000000
     -0.400000000000      0.100000000000      0.500000000000
     -0.100000000000      0.400000000000      0.500000000000
      0.100000000000     -0.400000000000      0.500000000000
     -0.100000000000     -0.400000000000      0.500000000000
      0.100000000000      0.400000000000      0.500000000000
     -0.500000000000     -0.100000000000      0.500000000000
     -0.100000000000      0.500000000000      0.500000000000
      0.100000000000     -0.500000000000      0.500000000000
     -0.200000000000     -0.200000000000      0.500000000000
      0.200000000000     -0.200000000000      0.500000000000
     -0.200000000000      0.200000000000      0.500000000000
     -0.300000000000     -0.200000000000      0.500000000000
      0.300000000000     -0.200000000000      0.500000000000
     -0.300000000000      0.200000000000      0.500000000000
     -0.200000000000      0.300000000000      0.500000000000
      0.200000000000     -0.300000000000      0.500000000000
     -0.200000000000     -0.300000000000      0.500000000000
      0.200000000000      0.300000000000      0.500000000000
     -0.400000000000     -0.200000000000      0.500000000000
      0.400000000000     -0.200000000000      0.500000000000
     -0.400000000000      0.200000000000      0.500000000000
     -0.200000000000      0.400000000000      0.500000000000
      0.200000000000     -0.400000000000      0.500000000000
     -0.200000000000     -0.400000000000      0.500000000000
      0.200000000000      0.400000000000      0.500000000000
     -0.500000000000     -0.200000000000      0.500000000000
     -0.200000000000      0.500000000000      0.500000000000
      0.200000000000     -0.500000000000      0.500000000000
     -0.300000000000     -0.300000000000      0.500000000000
      0.300000000000     -0.300000000000      0.500000000000
     -0.300000000000      0.300000000000      0.500000000000
     -0.400000000000     -0.300000000000      0.500000000000
      0.400000000000     -0.300000000000      0.500000000000
     -0.400000000000      0.300000000000      0.500000000000
     -0.300000000000      0.400000000000      0.500000000000
      0.300000000000     -0.400000000000      0.500000000000
     -0.300000000000     -0.400000000000      0.500000000000
      0.300000000000      0.400000000000      0.500000000000
     -0.500000000000     -0.300000000000      0.500000000000
     -0.300000000000      0.500000000000      0.500000000000
      0.300000000000     -0.500000000000      0.500000000000
     -0.400000000000     -0.400000000000      0.500000000000
      0.400000000000     -0.400000000000      0.500000000000
     -0.400000000000      0.400000000000      0.500000000000
     -0.500000000000     -0.400000000000      0.500000000000
     -0.400000000000      0.500000000000      0.500000000000
      0.400000000000     -0.500000000000      0.500000000000
      0.000000000000      0.000000000000     -0.250000000000
     -0.100000000000      0.000000000000     -0.250000000000
      0.100000000000      0.000000000000     -0.250000000000
      0.000000000000     -0.100000000000     -0.250000000000
      0.000000000000      0.100000000000     -0.250000000000
     -0.200000000000      0.000000000000     -0.250000000000
      0.200000000000      0.000000000000     -0.250000000000
      0.000000000000     -0.200000000000     -0.250000000000
      0.000000000000      0.200000000000     -0.250000000000
     -0.300000000000      0.000000000000     -0.250000000000
      0.300000000000      0.000000000000     -0.250000000000
      0.000000000000     -0.300000000000     -0.250000000000
      0.000000000000      0.300000000000     -0.250000000000
     -0.400000000000      0.000000000000     -0.250000000000
      0.400000000000      0.000000000000     -0.250000000000
      0.000000000000     -0.400000000000     -0.250000000000
      0.000000000000      0.400000000000     -0.250000000000
     -0.500000000000      0.000000000000     -0.250000000000
      0.000000000000     -0.500000000000     -0.250000000000
     -0.100000000000     -0.100000000000     -0.250000000000
      0.100000000000      0.100000000000     -0.250000000000
     -0.100000000000      0.100000000000     -0.250000000000
      0.100000000000     -0.100000000000     -0.250000000000
     -0.200000000000     -0.100000000000     -0.250000000000
      0.200000000000      0.100000000000     -0.250000000000
     -0.200000000000      0.100000000000     -0.250000000000
      0.200000000000     -0.100000000000     -0.250000000000
      0.100000000000     -0.200000000000     -0.250000000000
     -0.100000000000      0.200000000000     -0.250000000000
      0.100000000000      0.200000000000     -0.250000000000
     -0.100000000000     -0.200000000000     -0.250000000000
     -0.300000000000     -0.100000000000     -0.250000000000
      0.300000000000      0.100000000000     -0.250000000000
     -0.300000000000      0.100000000000     -0.250000000000
      0.300000000000     -0.100000000000     -0.250000000000
      0.100000000000     -0.300000000000     -0.250000000000
     -0.100000000000      0.300000000000     -0.250000000000
      0.100000000000      0.300000000000     -0.250000000000
     -0.100000000000     -0.300000000000     -0.250000000000
     -0.400000000000     -0.100000000000     -0.250000000000
      0.400000000000      0.100000000000     -0.250000000000
     -0.400000000000      0.100000000000     -0.250000000000
      0.400000000000     -0.100000000000     -0.250000000000
      0.100000000000     -0.400000000000     -0.250000000000
     -0.100000000000      0.400000000000     -0.250000000000
      0.100000000000      0.400000000000     -0.250000000000
     -0.100000000000     -0.400000000000     -0.250000000000
     -0.500000000000     -0.100000000000     -0.250000000000
      0.500000000000      0.100000000000     -0.250000000000
      0.100000000000     -0.500000000000     -0.250000000000
     -0.100000000000      0.500000000000     -0.250000000000
     -0.200000000000     -0.200000000000     -0.250000000000
      0.200000000000      0.200000000000     -0.250000000000
     -0.200000000000      0.200000000000     -0.250000000000
      0.200000000000     -0.200000000000     -0.250000000000
     -0.300000000000     -0.200000000000     -0.250000000000
      0.300000000000      0.200000000000     -0.250000000000
     -0.300000000000      0.200000000000     -0.250000000000
      0.300000000000     -0.200000000000     -0.250000000000
      0.200000000000     -0.300000000000     -0.250000000000
     -0.200000000000      0.300000000000     -0.250000000000
      0.200000000000      0.300000000000     -0.250000000000
     -0.200000000000     -0.300000000000     -0.250000000000
     -0.400000000000     -0.200000000000     -0.250000000000
      0.400000000000      0.200000000000     -0.250000000000
     -0.400000000000      0.200000000000     -0.250000000000
      0.400000000000     -0.200000000000     -0.250000000000
      0.200000000000     -0.400000000000     -0.250000000000
     -0.200000000000      0.400000000000     -0.250000000000
      0.200000000000      0.400000000000     -0.250000000000
     -0.200000000000     -0.400000000000     -0.250000000000
     -0.500000000000     -0.200000000000     -0.250000000000
      0.500000000000      0.200000000000     -0.250000000000
      0.200000000000     -0.500000000000     -0.250000000000
     -0.200000000000      0.500000000000     -0.250000000000
     -0.300000000000     -0.300000000000     -0.250000000000
      0.300000000000      0.300000000000     -0.250000000000
     -0.300000000000      0.300000000000     -0.250000000000
      0.300000000000     -0.300000000000     -0.250000000000
     -0.400000000000     -0.300000000000     -0.250000000000
      0.400000000000      0.300000000000     -0.250000000000
     -0.400000000000      0.300000000000     -0.250000000000
      0.400000000000     -0.300000000000     -0.250000000000
      0.300000000000     -0.400000000000     -0.250000000000
     -0.300000000000      0.400000000000     -0.250000000000
      0.300000000000      0.400000000000     -0.250000000000
     -0.300000000000     -0.400000000000     -0.250000000000
     -0.500000000000     -0.300000000000     -0.250000000000
      0.500000000000      0.300000000000     -0.250000000000
      0.300000000000     -0.500000000000     -0.250000000000
     -0.300000000000      0.500000000000     -0.250000000000
     -0.400000000000     -0.400000000000     -0.250000000000
      0.400000000000      0.400000000000     -0.250000000000
     -0.400000000000      0.400000000000     -0.250000000000
      0.400000000000     -0.400000000000     -0.250000000000
     -0.500000000000     -0.400000000000     -0.250000000000
      0.500000000000      0.400000000000     -0.250000000000
      0.400000000000     -0.500000000000     -0.250000000000
     -0.400000000000      0.500000000000     -0.250000000000
     -0.500000000000     -0.500000000000     -0.250000000000
end kpoints
