K-Path Generated by VASPKIT.
   30
Line-Mode
Reciprocal
   0.0000000000   0.0000000000   0.0000000000     G          
   0.5000000000   0.5000000000   0.0000000000     Y              
 
   0.5000000000   0.5000000000   0.0000000000     Y              
   0.5000000000   0.5000000000   0.5000000000     M              
 
   0.5000000000   0.5000000000   0.5000000000     M              
   0.0000000000   0.0000000000   0.5000000000     A              
 
   0.0000000000   0.0000000000   0.5000000000     A              
   0.0000000000   0.0000000000   0.0000000000     G          
 
   0.0000000000   0.5000000000   0.5000000000     L          
   0.0000000000   0.0000000000   0.0000000000     G          
 
   0.0000000000   0.0000000000   0.0000000000     G          
   0.0000000000   0.5000000000   0.0000000000     V         
 
