Na8 Ir4 O12 ## NOTE: this only keeps the atoms coor. of the projected atoms. here the Ir atoms.
1.0
        5.5429658890         0.0000000000         0.0000000000
        0.0000000000         9.5863523483         0.0000000000
       -1.8755633331         0.0000000000         5.3187358324
Ir   
4   
Direct
     0.000000000         0.333130002         0.000000000
     0.000000000         0.666869998         0.000000000
     0.500000000         0.833130002         0.000000000
     0.500000000         0.166869998         0.000000000
