num_bands = 21
num_wann =   20  ! set to NBANDS by VASP
dis_win_min= 2.25
dis_win_max= 7.7
DIS_FROZ_MIN = 2.25
DIS_FROZ_MAX = 7.337
dis_num_iter = 1000000
dis_mix_ratio = 0.5
guiding_centres= true
NUM_ITER=0
EXCLUDE_BANDS=1-72,94-120
begin projections
Ir:l=2
end projections

bands_plot : true
bands_num_points : 100 
bands_plot_format : xmgrace gnuplot
write_hr = true

begin kpoint_path
G   0.0000000000   0.0000000000   0.0000000000   Y  0.5000000000   0.5000000000   0.0000000000 
       
Y   0.5000000000   0.5000000000   0.0000000000   M  0.5000000000   0.5000000000   0.5000000000  
              
M   0.5000000000   0.5000000000   0.5000000000   A  0.0000000000   0.0000000000   0.5000000000 
                     
A   0.0000000000   0.0000000000   0.5000000000   G  0.0000000000   0.0000000000   0.0000000000 
                            
L_2 0.0000000000   0.5000000000   0.5000000000   G  0.0000000000   0.0000000000   0.0000000000  
                                   
G   0.0000000000   0.0000000000   0.0000000000   V_2 0.0000000000   0.5000000000   0.0000000000 
end kpoint_path

begin unit_cell_cart
     5.5429659     0.0000000     0.0000000
     0.0000000     9.5863523     0.0000000
    -1.8755633     0.0000000     5.3187358
end unit_cell_cart

begin atoms_cart
Na      -0.9377817     1.5463170     2.6593679
Na      -0.9377817     8.0400354     2.6593679
Na       1.8337013     6.3394931     2.6593679
Na       1.8337013     3.2468592     2.6593679
Na       0.0000000     0.0000000     0.0000000
Na       2.7714829     4.7931762     0.0000000
Na      -0.9377817     4.7931762     2.6593679
Na       1.8337013     0.0000000     2.6593679
Ir       0.0000000     3.1935016     0.0000000
Ir       0.0000000     6.3928508     0.0000000
Ir       2.7714829     7.9866778     0.0000000
Ir       2.7714829     1.5996746     0.0000000
O       -0.1322258     3.0150661     4.2338415
O        3.7996285     6.5712859     1.0848943
O        3.7996285     3.0150661     1.0848943
O       -0.1322258     6.5712859     4.2338415
O        2.6392570     7.8082426     4.2338415
O        1.0281455     1.7781100     1.0848943
O        1.0281455     7.8082426     1.0848943
O        2.6392570     1.7781100     4.2338415
O        0.7246075     4.7931762     1.0969414
O        2.9427951     4.7931762     4.2217944
O        3.4960904     0.0000000     1.0969414
O        0.1713122     0.0000000     4.2217944
end atoms_cart

mp_grid =     8     8     8

begin kpoints
      0.000000000000      0.000000000000      0.000000000000
      0.125000000000      0.000000000000      0.000000000000
      0.250000000000      0.000000000000      0.000000000000
      0.375000000000      0.000000000000      0.000000000000
      0.500000000000      0.000000000000      0.000000000000
      0.000000000000      0.125000000000      0.000000000000
      0.125000000000      0.125000000000      0.000000000000
      0.250000000000      0.125000000000      0.000000000000
      0.375000000000      0.125000000000      0.000000000000
      0.500000000000      0.125000000000      0.000000000000
      0.000000000000      0.250000000000      0.000000000000
      0.125000000000      0.250000000000      0.000000000000
      0.250000000000      0.250000000000      0.000000000000
      0.375000000000      0.250000000000      0.000000000000
      0.500000000000      0.250000000000      0.000000000000
      0.000000000000      0.375000000000      0.000000000000
      0.125000000000      0.375000000000      0.000000000000
      0.250000000000      0.375000000000      0.000000000000
      0.375000000000      0.375000000000      0.000000000000
      0.500000000000      0.375000000000      0.000000000000
      0.000000000000      0.500000000000      0.000000000000
      0.125000000000      0.500000000000      0.000000000000
      0.250000000000      0.500000000000      0.000000000000
      0.375000000000      0.500000000000      0.000000000000
      0.500000000000      0.500000000000      0.000000000000
      0.000000000000      0.000000000000      0.125000000000
      0.125000000000      0.000000000000      0.125000000000
      0.250000000000      0.000000000000      0.125000000000
      0.375000000000      0.000000000000      0.125000000000
      0.500000000000      0.000000000000      0.125000000000
     -0.375000000000      0.000000000000      0.125000000000
     -0.250000000000      0.000000000000      0.125000000000
     -0.125000000000      0.000000000000      0.125000000000
      0.000000000000      0.125000000000      0.125000000000
      0.125000000000      0.125000000000      0.125000000000
      0.250000000000      0.125000000000      0.125000000000
      0.375000000000      0.125000000000      0.125000000000
      0.500000000000      0.125000000000      0.125000000000
     -0.375000000000      0.125000000000      0.125000000000
     -0.250000000000      0.125000000000      0.125000000000
     -0.125000000000      0.125000000000      0.125000000000
      0.000000000000      0.250000000000      0.125000000000
      0.125000000000      0.250000000000      0.125000000000
      0.250000000000      0.250000000000      0.125000000000
      0.375000000000      0.250000000000      0.125000000000
      0.500000000000      0.250000000000      0.125000000000
     -0.375000000000      0.250000000000      0.125000000000
     -0.250000000000      0.250000000000      0.125000000000
     -0.125000000000      0.250000000000      0.125000000000
      0.000000000000      0.375000000000      0.125000000000
      0.125000000000      0.375000000000      0.125000000000
      0.250000000000      0.375000000000      0.125000000000
      0.375000000000      0.375000000000      0.125000000000
      0.500000000000      0.375000000000      0.125000000000
     -0.375000000000      0.375000000000      0.125000000000
     -0.250000000000      0.375000000000      0.125000000000
     -0.125000000000      0.375000000000      0.125000000000
      0.000000000000      0.500000000000      0.125000000000
      0.125000000000      0.500000000000      0.125000000000
      0.250000000000      0.500000000000      0.125000000000
      0.375000000000      0.500000000000      0.125000000000
      0.500000000000      0.500000000000      0.125000000000
     -0.375000000000      0.500000000000      0.125000000000
     -0.250000000000      0.500000000000      0.125000000000
     -0.125000000000      0.500000000000      0.125000000000
      0.000000000000      0.000000000000      0.250000000000
      0.125000000000      0.000000000000      0.250000000000
      0.250000000000      0.000000000000      0.250000000000
      0.375000000000      0.000000000000      0.250000000000
      0.500000000000      0.000000000000      0.250000000000
     -0.375000000000      0.000000000000      0.250000000000
     -0.250000000000      0.000000000000      0.250000000000
     -0.125000000000      0.000000000000      0.250000000000
      0.000000000000      0.125000000000      0.250000000000
      0.125000000000      0.125000000000      0.250000000000
      0.250000000000      0.125000000000      0.250000000000
      0.375000000000      0.125000000000      0.250000000000
      0.500000000000      0.125000000000      0.250000000000
     -0.375000000000      0.125000000000      0.250000000000
     -0.250000000000      0.125000000000      0.250000000000
     -0.125000000000      0.125000000000      0.250000000000
      0.000000000000      0.250000000000      0.250000000000
      0.125000000000      0.250000000000      0.250000000000
      0.250000000000      0.250000000000      0.250000000000
      0.375000000000      0.250000000000      0.250000000000
      0.500000000000      0.250000000000      0.250000000000
     -0.375000000000      0.250000000000      0.250000000000
     -0.250000000000      0.250000000000      0.250000000000
     -0.125000000000      0.250000000000      0.250000000000
      0.000000000000      0.375000000000      0.250000000000
      0.125000000000      0.375000000000      0.250000000000
      0.250000000000      0.375000000000      0.250000000000
      0.375000000000      0.375000000000      0.250000000000
      0.500000000000      0.375000000000      0.250000000000
     -0.375000000000      0.375000000000      0.250000000000
     -0.250000000000      0.375000000000      0.250000000000
     -0.125000000000      0.375000000000      0.250000000000
      0.000000000000      0.500000000000      0.250000000000
      0.125000000000      0.500000000000      0.250000000000
      0.250000000000      0.500000000000      0.250000000000
      0.375000000000      0.500000000000      0.250000000000
      0.500000000000      0.500000000000      0.250000000000
     -0.375000000000      0.500000000000      0.250000000000
     -0.250000000000      0.500000000000      0.250000000000
     -0.125000000000      0.500000000000      0.250000000000
      0.000000000000      0.000000000000      0.375000000000
      0.125000000000      0.000000000000      0.375000000000
      0.250000000000      0.000000000000      0.375000000000
      0.375000000000      0.000000000000      0.375000000000
      0.500000000000      0.000000000000      0.375000000000
     -0.375000000000      0.000000000000      0.375000000000
     -0.250000000000      0.000000000000      0.375000000000
     -0.125000000000      0.000000000000      0.375000000000
      0.000000000000      0.125000000000      0.375000000000
      0.125000000000      0.125000000000      0.375000000000
      0.250000000000      0.125000000000      0.375000000000
      0.375000000000      0.125000000000      0.375000000000
      0.500000000000      0.125000000000      0.375000000000
     -0.375000000000      0.125000000000      0.375000000000
     -0.250000000000      0.125000000000      0.375000000000
     -0.125000000000      0.125000000000      0.375000000000
      0.000000000000      0.250000000000      0.375000000000
      0.125000000000      0.250000000000      0.375000000000
      0.250000000000      0.250000000000      0.375000000000
      0.375000000000      0.250000000000      0.375000000000
      0.500000000000      0.250000000000      0.375000000000
     -0.375000000000      0.250000000000      0.375000000000
     -0.250000000000      0.250000000000      0.375000000000
     -0.125000000000      0.250000000000      0.375000000000
      0.000000000000      0.375000000000      0.375000000000
      0.125000000000      0.375000000000      0.375000000000
      0.250000000000      0.375000000000      0.375000000000
      0.375000000000      0.375000000000      0.375000000000
      0.500000000000      0.375000000000      0.375000000000
     -0.375000000000      0.375000000000      0.375000000000
     -0.250000000000      0.375000000000      0.375000000000
     -0.125000000000      0.375000000000      0.375000000000
      0.000000000000      0.500000000000      0.375000000000
      0.125000000000      0.500000000000      0.375000000000
      0.250000000000      0.500000000000      0.375000000000
      0.375000000000      0.500000000000      0.375000000000
      0.500000000000      0.500000000000      0.375000000000
     -0.375000000000      0.500000000000      0.375000000000
     -0.250000000000      0.500000000000      0.375000000000
     -0.125000000000      0.500000000000      0.375000000000
      0.000000000000      0.000000000000      0.500000000000
      0.125000000000      0.000000000000      0.500000000000
      0.250000000000      0.000000000000      0.500000000000
      0.375000000000      0.000000000000      0.500000000000
      0.500000000000      0.000000000000      0.500000000000
      0.000000000000      0.125000000000      0.500000000000
      0.125000000000      0.125000000000      0.500000000000
      0.250000000000      0.125000000000      0.500000000000
      0.375000000000      0.125000000000      0.500000000000
      0.500000000000      0.125000000000      0.500000000000
      0.000000000000      0.250000000000      0.500000000000
      0.125000000000      0.250000000000      0.500000000000
      0.250000000000      0.250000000000      0.500000000000
      0.375000000000      0.250000000000      0.500000000000
      0.500000000000      0.250000000000      0.500000000000
      0.000000000000      0.375000000000      0.500000000000
      0.125000000000      0.375000000000      0.500000000000
      0.250000000000      0.375000000000      0.500000000000
      0.375000000000      0.375000000000      0.500000000000
      0.500000000000      0.375000000000      0.500000000000
      0.000000000000      0.500000000000      0.500000000000
      0.125000000000      0.500000000000      0.500000000000
      0.250000000000      0.500000000000      0.500000000000
      0.375000000000      0.500000000000      0.500000000000
      0.500000000000      0.500000000000      0.500000000000
     -0.125000000000      0.000000000000      0.000000000000
     -0.250000000000      0.000000000000      0.000000000000
     -0.375000000000      0.000000000000      0.000000000000
      0.000000000000     -0.125000000000      0.000000000000
     -0.125000000000     -0.125000000000      0.000000000000
     -0.125000000000      0.125000000000      0.000000000000
      0.125000000000     -0.125000000000      0.000000000000
     -0.250000000000     -0.125000000000      0.000000000000
     -0.250000000000      0.125000000000      0.000000000000
      0.250000000000     -0.125000000000      0.000000000000
     -0.375000000000     -0.125000000000      0.000000000000
     -0.375000000000      0.125000000000      0.000000000000
      0.375000000000     -0.125000000000      0.000000000000
     -0.500000000000     -0.125000000000      0.000000000000
      0.000000000000     -0.250000000000      0.000000000000
     -0.125000000000     -0.250000000000      0.000000000000
     -0.125000000000      0.250000000000      0.000000000000
      0.125000000000     -0.250000000000      0.000000000000
     -0.250000000000     -0.250000000000      0.000000000000
     -0.250000000000      0.250000000000      0.000000000000
      0.250000000000     -0.250000000000      0.000000000000
     -0.375000000000     -0.250000000000      0.000000000000
     -0.375000000000      0.250000000000      0.000000000000
      0.375000000000     -0.250000000000      0.000000000000
     -0.500000000000     -0.250000000000      0.000000000000
      0.000000000000     -0.375000000000      0.000000000000
     -0.125000000000     -0.375000000000      0.000000000000
     -0.125000000000      0.375000000000      0.000000000000
      0.125000000000     -0.375000000000      0.000000000000
     -0.250000000000     -0.375000000000      0.000000000000
     -0.250000000000      0.375000000000      0.000000000000
      0.250000000000     -0.375000000000      0.000000000000
     -0.375000000000     -0.375000000000      0.000000000000
     -0.375000000000      0.375000000000      0.000000000000
      0.375000000000     -0.375000000000      0.000000000000
     -0.500000000000     -0.375000000000      0.000000000000
     -0.125000000000     -0.500000000000      0.000000000000
     -0.250000000000     -0.500000000000      0.000000000000
     -0.375000000000     -0.500000000000      0.000000000000
      0.000000000000      0.000000000000     -0.125000000000
     -0.125000000000      0.000000000000     -0.125000000000
     -0.250000000000      0.000000000000     -0.125000000000
     -0.375000000000      0.000000000000     -0.125000000000
     -0.500000000000      0.000000000000     -0.125000000000
      0.375000000000      0.000000000000     -0.125000000000
      0.250000000000      0.000000000000     -0.125000000000
      0.125000000000      0.000000000000     -0.125000000000
      0.000000000000     -0.125000000000     -0.125000000000
      0.000000000000      0.125000000000     -0.125000000000
      0.000000000000     -0.125000000000      0.125000000000
     -0.125000000000     -0.125000000000     -0.125000000000
     -0.125000000000      0.125000000000     -0.125000000000
      0.125000000000     -0.125000000000      0.125000000000
     -0.250000000000     -0.125000000000     -0.125000000000
     -0.250000000000      0.125000000000     -0.125000000000
      0.250000000000     -0.125000000000      0.125000000000
     -0.375000000000     -0.125000000000     -0.125000000000
     -0.375000000000      0.125000000000     -0.125000000000
      0.375000000000     -0.125000000000      0.125000000000
     -0.500000000000     -0.125000000000     -0.125000000000
     -0.500000000000      0.125000000000     -0.125000000000
      0.500000000000     -0.125000000000      0.125000000000
      0.375000000000     -0.125000000000     -0.125000000000
      0.375000000000      0.125000000000     -0.125000000000
     -0.375000000000     -0.125000000000      0.125000000000
      0.250000000000     -0.125000000000     -0.125000000000
      0.250000000000      0.125000000000     -0.125000000000
     -0.250000000000     -0.125000000000      0.125000000000
      0.125000000000     -0.125000000000     -0.125000000000
      0.125000000000      0.125000000000     -0.125000000000
     -0.125000000000     -0.125000000000      0.125000000000
      0.000000000000     -0.250000000000     -0.125000000000
      0.000000000000      0.250000000000     -0.125000000000
      0.000000000000     -0.250000000000      0.125000000000
     -0.125000000000     -0.250000000000     -0.125000000000
     -0.125000000000      0.250000000000     -0.125000000000
      0.125000000000     -0.250000000000      0.125000000000
     -0.250000000000     -0.250000000000     -0.125000000000
     -0.250000000000      0.250000000000     -0.125000000000
      0.250000000000     -0.250000000000      0.125000000000
     -0.375000000000     -0.250000000000     -0.125000000000
     -0.375000000000      0.250000000000     -0.125000000000
      0.375000000000     -0.250000000000      0.125000000000
     -0.500000000000     -0.250000000000     -0.125000000000
     -0.500000000000      0.250000000000     -0.125000000000
      0.500000000000     -0.250000000000      0.125000000000
      0.375000000000     -0.250000000000     -0.125000000000
      0.375000000000      0.250000000000     -0.125000000000
     -0.375000000000     -0.250000000000      0.125000000000
      0.250000000000     -0.250000000000     -0.125000000000
      0.250000000000      0.250000000000     -0.125000000000
     -0.250000000000     -0.250000000000      0.125000000000
      0.125000000000     -0.250000000000     -0.125000000000
      0.125000000000      0.250000000000     -0.125000000000
     -0.125000000000     -0.250000000000      0.125000000000
      0.000000000000     -0.375000000000     -0.125000000000
      0.000000000000      0.375000000000     -0.125000000000
      0.000000000000     -0.375000000000      0.125000000000
     -0.125000000000     -0.375000000000     -0.125000000000
     -0.125000000000      0.375000000000     -0.125000000000
      0.125000000000     -0.375000000000      0.125000000000
     -0.250000000000     -0.375000000000     -0.125000000000
     -0.250000000000      0.375000000000     -0.125000000000
      0.250000000000     -0.375000000000      0.125000000000
     -0.375000000000     -0.375000000000     -0.125000000000
     -0.375000000000      0.375000000000     -0.125000000000
      0.375000000000     -0.375000000000      0.125000000000
     -0.500000000000     -0.375000000000     -0.125000000000
     -0.500000000000      0.375000000000     -0.125000000000
      0.500000000000     -0.375000000000      0.125000000000
      0.375000000000     -0.375000000000     -0.125000000000
      0.375000000000      0.375000000000     -0.125000000000
     -0.375000000000     -0.375000000000      0.125000000000
      0.250000000000     -0.375000000000     -0.125000000000
      0.250000000000      0.375000000000     -0.125000000000
     -0.250000000000     -0.375000000000      0.125000000000
      0.125000000000     -0.375000000000     -0.125000000000
      0.125000000000      0.375000000000     -0.125000000000
     -0.125000000000     -0.375000000000      0.125000000000
      0.000000000000     -0.500000000000     -0.125000000000
     -0.125000000000     -0.500000000000     -0.125000000000
     -0.250000000000     -0.500000000000     -0.125000000000
     -0.375000000000     -0.500000000000     -0.125000000000
     -0.500000000000     -0.500000000000     -0.125000000000
      0.375000000000     -0.500000000000     -0.125000000000
      0.250000000000     -0.500000000000     -0.125000000000
      0.125000000000     -0.500000000000     -0.125000000000
      0.000000000000      0.000000000000     -0.250000000000
     -0.125000000000      0.000000000000     -0.250000000000
     -0.250000000000      0.000000000000     -0.250000000000
     -0.375000000000      0.000000000000     -0.250000000000
     -0.500000000000      0.000000000000     -0.250000000000
      0.375000000000      0.000000000000     -0.250000000000
      0.250000000000      0.000000000000     -0.250000000000
      0.125000000000      0.000000000000     -0.250000000000
      0.000000000000     -0.125000000000     -0.250000000000
      0.000000000000      0.125000000000     -0.250000000000
      0.000000000000     -0.125000000000      0.250000000000
     -0.125000000000     -0.125000000000     -0.250000000000
     -0.125000000000      0.125000000000     -0.250000000000
      0.125000000000     -0.125000000000      0.250000000000
     -0.250000000000     -0.125000000000     -0.250000000000
     -0.250000000000      0.125000000000     -0.250000000000
      0.250000000000     -0.125000000000      0.250000000000
     -0.375000000000     -0.125000000000     -0.250000000000
     -0.375000000000      0.125000000000     -0.250000000000
      0.375000000000     -0.125000000000      0.250000000000
     -0.500000000000     -0.125000000000     -0.250000000000
     -0.500000000000      0.125000000000     -0.250000000000
      0.500000000000     -0.125000000000      0.250000000000
      0.375000000000     -0.125000000000     -0.250000000000
      0.375000000000      0.125000000000     -0.250000000000
     -0.375000000000     -0.125000000000      0.250000000000
      0.250000000000     -0.125000000000     -0.250000000000
      0.250000000000      0.125000000000     -0.250000000000
     -0.250000000000     -0.125000000000      0.250000000000
      0.125000000000     -0.125000000000     -0.250000000000
      0.125000000000      0.125000000000     -0.250000000000
     -0.125000000000     -0.125000000000      0.250000000000
      0.000000000000     -0.250000000000     -0.250000000000
      0.000000000000      0.250000000000     -0.250000000000
      0.000000000000     -0.250000000000      0.250000000000
     -0.125000000000     -0.250000000000     -0.250000000000
     -0.125000000000      0.250000000000     -0.250000000000
      0.125000000000     -0.250000000000      0.250000000000
     -0.250000000000     -0.250000000000     -0.250000000000
     -0.250000000000      0.250000000000     -0.250000000000
      0.250000000000     -0.250000000000      0.250000000000
     -0.375000000000     -0.250000000000     -0.250000000000
     -0.375000000000      0.250000000000     -0.250000000000
      0.375000000000     -0.250000000000      0.250000000000
     -0.500000000000     -0.250000000000     -0.250000000000
     -0.500000000000      0.250000000000     -0.250000000000
      0.500000000000     -0.250000000000      0.250000000000
      0.375000000000     -0.250000000000     -0.250000000000
      0.375000000000      0.250000000000     -0.250000000000
     -0.375000000000     -0.250000000000      0.250000000000
      0.250000000000     -0.250000000000     -0.250000000000
      0.250000000000      0.250000000000     -0.250000000000
     -0.250000000000     -0.250000000000      0.250000000000
      0.125000000000     -0.250000000000     -0.250000000000
      0.125000000000      0.250000000000     -0.250000000000
     -0.125000000000     -0.250000000000      0.250000000000
      0.000000000000     -0.375000000000     -0.250000000000
      0.000000000000      0.375000000000     -0.250000000000
      0.000000000000     -0.375000000000      0.250000000000
     -0.125000000000     -0.375000000000     -0.250000000000
     -0.125000000000      0.375000000000     -0.250000000000
      0.125000000000     -0.375000000000      0.250000000000
     -0.250000000000     -0.375000000000     -0.250000000000
     -0.250000000000      0.375000000000     -0.250000000000
      0.250000000000     -0.375000000000      0.250000000000
     -0.375000000000     -0.375000000000     -0.250000000000
     -0.375000000000      0.375000000000     -0.250000000000
      0.375000000000     -0.375000000000      0.250000000000
     -0.500000000000     -0.375000000000     -0.250000000000
     -0.500000000000      0.375000000000     -0.250000000000
      0.500000000000     -0.375000000000      0.250000000000
      0.375000000000     -0.375000000000     -0.250000000000
      0.375000000000      0.375000000000     -0.250000000000
     -0.375000000000     -0.375000000000      0.250000000000
      0.250000000000     -0.375000000000     -0.250000000000
      0.250000000000      0.375000000000     -0.250000000000
     -0.250000000000     -0.375000000000      0.250000000000
      0.125000000000     -0.375000000000     -0.250000000000
      0.125000000000      0.375000000000     -0.250000000000
     -0.125000000000     -0.375000000000      0.250000000000
      0.000000000000     -0.500000000000     -0.250000000000
     -0.125000000000     -0.500000000000     -0.250000000000
     -0.250000000000     -0.500000000000     -0.250000000000
     -0.375000000000     -0.500000000000     -0.250000000000
     -0.500000000000     -0.500000000000     -0.250000000000
      0.375000000000     -0.500000000000     -0.250000000000
      0.250000000000     -0.500000000000     -0.250000000000
      0.125000000000     -0.500000000000     -0.250000000000
      0.000000000000      0.000000000000     -0.375000000000
     -0.125000000000      0.000000000000     -0.375000000000
     -0.250000000000      0.000000000000     -0.375000000000
     -0.375000000000      0.000000000000     -0.375000000000
     -0.500000000000      0.000000000000     -0.375000000000
      0.375000000000      0.000000000000     -0.375000000000
      0.250000000000      0.000000000000     -0.375000000000
      0.125000000000      0.000000000000     -0.375000000000
      0.000000000000     -0.125000000000     -0.375000000000
      0.000000000000      0.125000000000     -0.375000000000
      0.000000000000     -0.125000000000      0.375000000000
     -0.125000000000     -0.125000000000     -0.375000000000
     -0.125000000000      0.125000000000     -0.375000000000
      0.125000000000     -0.125000000000      0.375000000000
     -0.250000000000     -0.125000000000     -0.375000000000
     -0.250000000000      0.125000000000     -0.375000000000
      0.250000000000     -0.125000000000      0.375000000000
     -0.375000000000     -0.125000000000     -0.375000000000
     -0.375000000000      0.125000000000     -0.375000000000
      0.375000000000     -0.125000000000      0.375000000000
     -0.500000000000     -0.125000000000     -0.375000000000
     -0.500000000000      0.125000000000     -0.375000000000
      0.500000000000     -0.125000000000      0.375000000000
      0.375000000000     -0.125000000000     -0.375000000000
      0.375000000000      0.125000000000     -0.375000000000
     -0.375000000000     -0.125000000000      0.375000000000
      0.250000000000     -0.125000000000     -0.375000000000
      0.250000000000      0.125000000000     -0.375000000000
     -0.250000000000     -0.125000000000      0.375000000000
      0.125000000000     -0.125000000000     -0.375000000000
      0.125000000000      0.125000000000     -0.375000000000
     -0.125000000000     -0.125000000000      0.375000000000
      0.000000000000     -0.250000000000     -0.375000000000
      0.000000000000      0.250000000000     -0.375000000000
      0.000000000000     -0.250000000000      0.375000000000
     -0.125000000000     -0.250000000000     -0.375000000000
     -0.125000000000      0.250000000000     -0.375000000000
      0.125000000000     -0.250000000000      0.375000000000
     -0.250000000000     -0.250000000000     -0.375000000000
     -0.250000000000      0.250000000000     -0.375000000000
      0.250000000000     -0.250000000000      0.375000000000
     -0.375000000000     -0.250000000000     -0.375000000000
     -0.375000000000      0.250000000000     -0.375000000000
      0.375000000000     -0.250000000000      0.375000000000
     -0.500000000000     -0.250000000000     -0.375000000000
     -0.500000000000      0.250000000000     -0.375000000000
      0.500000000000     -0.250000000000      0.375000000000
      0.375000000000     -0.250000000000     -0.375000000000
      0.375000000000      0.250000000000     -0.375000000000
     -0.375000000000     -0.250000000000      0.375000000000
      0.250000000000     -0.250000000000     -0.375000000000
      0.250000000000      0.250000000000     -0.375000000000
     -0.250000000000     -0.250000000000      0.375000000000
      0.125000000000     -0.250000000000     -0.375000000000
      0.125000000000      0.250000000000     -0.375000000000
     -0.125000000000     -0.250000000000      0.375000000000
      0.000000000000     -0.375000000000     -0.375000000000
      0.000000000000      0.375000000000     -0.375000000000
      0.000000000000     -0.375000000000      0.375000000000
     -0.125000000000     -0.375000000000     -0.375000000000
     -0.125000000000      0.375000000000     -0.375000000000
      0.125000000000     -0.375000000000      0.375000000000
     -0.250000000000     -0.375000000000     -0.375000000000
     -0.250000000000      0.375000000000     -0.375000000000
      0.250000000000     -0.375000000000      0.375000000000
     -0.375000000000     -0.375000000000     -0.375000000000