Primitive Cell
  1.000000
    0.00000000000000    2.84009429540000    2.84009429540000
    2.84009429540000    0.00000000000000    2.84009429540000
    2.84009429540000    2.84009429540000    0.00000000000000
  Ga  As
   1   1
DIRECT
    0.0000000000000000    0.0000000000000000    0.0000000000000000    
    0.7500000000000000    0.7500000000000000    0.7500000000000000    
