num_wann = 8  ! set to NBANDS by VASP
num_bands = 25
dis_win_min= -10
dis_win_max= 15
#DIS_FROZ_MIN = -10
#DIS_FROZ_MAX =  5
dis_num_iter = 10000
#dis_mix_ratio = 0.5
#guiding_centres= true
EXCLUDE_BANDS=1-5
dis_conv_tol=1E-12
NUM_ITER=0
 
begin projections
Ga:l=0,1
As:l=0,1
end projections

#restart =  plot
#hr_plot = True
write_xyz = True
translate_home_cell = False
bands_plot : true
bands_num_points : 100
#bands_plot_format : xmgrace gnuplot
write_hr = true
#wannier_plot = TRUE

#restart         =  plot
#bands_plot      =  true      
 
begin kpoint_path      
   GAMMA  0.00000000  0.00000000  0.00000000        X  0.50000000  0.00000000  0.50000000
       X  0.50000000  0.00000000  0.50000000        U  0.62500000  0.25000000  0.62500000
       K  0.37500000  0.37500000  0.75000000    GAMMA  0.00000000  0.00000000  0.00000000
   GAMMA  0.00000000  0.00000000  0.00000000        L  0.50000000  0.50000000  0.50000000
       L  0.50000000  0.50000000  0.50000000        W  0.50000000  0.25000000  0.75000000
       W  0.50000000  0.25000000  0.75000000        X  0.50000000  0.00000000  0.50000000
end kpoint_path
 

begin unit_cell_cart
     0.0000000     2.8400943     2.8400943
     2.8400943     0.0000000     2.8400943
     2.8400943     2.8400943     0.0000000
end unit_cell_cart

begin atoms_cart
Ga       0.0000000     0.0000000     0.0000000
As       4.2601414     4.2601414     4.2601414
end atoms_cart

mp_grid =    14    14    14

begin kpoints
      0.000000000000      0.000000000000      0.000000000000
      0.071428571429      0.000000000000      0.000000000000
      0.142857142857      0.000000000000      0.000000000000
      0.214285714286      0.000000000000      0.000000000000
      0.285714285714      0.000000000000      0.000000000000
      0.357142857143      0.000000000000      0.000000000000
      0.428571428571      0.000000000000      0.000000000000
      0.500000000000      0.000000000000      0.000000000000
      0.071428571429      0.071428571429      0.000000000000
      0.142857142857      0.071428571429      0.000000000000
      0.214285714286      0.071428571429      0.000000000000
      0.285714285714      0.071428571429      0.000000000000
      0.357142857143      0.071428571429      0.000000000000
      0.428571428571      0.071428571429      0.000000000000
      0.500000000000      0.071428571429      0.000000000000
     -0.428571428571      0.071428571429      0.000000000000
     -0.357142857143      0.071428571429      0.000000000000
     -0.285714285714      0.071428571429      0.000000000000
     -0.214285714286      0.071428571429      0.000000000000
     -0.142857142857      0.071428571429      0.000000000000
     -0.071428571429      0.071428571429      0.000000000000
      0.142857142857      0.142857142857      0.000000000000
      0.214285714286      0.142857142857      0.000000000000
      0.285714285714      0.142857142857      0.000000000000
      0.357142857143      0.142857142857      0.000000000000
      0.428571428571      0.142857142857      0.000000000000
      0.500000000000      0.142857142857      0.000000000000
     -0.428571428571      0.142857142857      0.000000000000
     -0.357142857143      0.142857142857      0.000000000000
     -0.285714285714      0.142857142857      0.000000000000
     -0.214285714286      0.142857142857      0.000000000000
     -0.142857142857      0.142857142857      0.000000000000
      0.214285714286      0.214285714286      0.000000000000
      0.285714285714      0.214285714286      0.000000000000
      0.357142857143      0.214285714286      0.000000000000
      0.428571428571      0.214285714286      0.000000000000
      0.500000000000      0.214285714286      0.000000000000
     -0.428571428571      0.214285714286      0.000000000000
     -0.357142857143      0.214285714286      0.000000000000
     -0.285714285714      0.214285714286      0.000000000000
     -0.214285714286      0.214285714286      0.000000000000
      0.285714285714      0.285714285714      0.000000000000
      0.357142857143      0.285714285714      0.000000000000
      0.428571428571      0.285714285714      0.000000000000
      0.500000000000      0.285714285714      0.000000000000
     -0.428571428571      0.285714285714      0.000000000000
     -0.357142857143      0.285714285714      0.000000000000
     -0.285714285714      0.285714285714      0.000000000000
      0.357142857143      0.357142857143      0.000000000000
      0.428571428571      0.357142857143      0.000000000000
      0.500000000000      0.357142857143      0.000000000000
     -0.428571428571      0.357142857143      0.000000000000
     -0.357142857143      0.357142857143      0.000000000000
      0.428571428571      0.428571428571      0.000000000000
      0.500000000000      0.428571428571      0.000000000000
     -0.428571428571      0.428571428571      0.000000000000
      0.500000000000      0.500000000000      0.000000000000
      0.214285714286      0.142857142857      0.071428571429
      0.285714285714      0.142857142857      0.071428571429
      0.357142857143      0.142857142857      0.071428571429
      0.428571428571      0.142857142857      0.071428571429
      0.500000000000      0.142857142857      0.071428571429
     -0.428571428571      0.142857142857      0.071428571429
      0.285714285714      0.214285714286      0.071428571429
      0.357142857143      0.214285714286      0.071428571429
      0.428571428571      0.214285714286      0.071428571429
      0.500000000000      0.214285714286      0.071428571429
     -0.428571428571      0.214285714286      0.071428571429
     -0.357142857143      0.214285714286      0.071428571429
     -0.285714285714      0.214285714286      0.071428571429
     -0.214285714286      0.214285714286      0.071428571429
     -0.142857142857      0.214285714286      0.071428571429
      0.357142857143      0.285714285714      0.071428571429
      0.428571428571      0.285714285714      0.071428571429
      0.500000000000      0.285714285714      0.071428571429
     -0.428571428571      0.285714285714      0.071428571429
     -0.357142857143      0.285714285714      0.071428571429
     -0.285714285714      0.285714285714      0.071428571429
     -0.214285714286      0.285714285714      0.071428571429
      0.428571428571      0.357142857143      0.071428571429
      0.500000000000      0.357142857143      0.071428571429
     -0.428571428571      0.357142857143      0.071428571429
     -0.357142857143      0.357142857143      0.071428571429
     -0.285714285714      0.357142857143      0.071428571429
      0.500000000000      0.428571428571      0.071428571429
     -0.428571428571      0.428571428571      0.071428571429
     -0.357142857143      0.428571428571      0.071428571429
     -0.428571428571      0.500000000000      0.071428571429
      0.428571428571      0.285714285714      0.142857142857
      0.500000000000      0.285714285714      0.142857142857
     -0.428571428571      0.285714285714      0.142857142857
     -0.357142857143      0.285714285714      0.142857142857
      0.500000000000      0.357142857143      0.142857142857
     -0.428571428571      0.357142857143      0.142857142857
     -0.357142857143      0.357142857143      0.142857142857
     -0.285714285714      0.357142857143      0.142857142857
     -0.214285714286      0.357142857143      0.142857142857
     -0.428571428571      0.428571428571      0.142857142857
     -0.357142857143      0.428571428571      0.142857142857
     -0.285714285714      0.428571428571      0.142857142857
     -0.357142857143      0.500000000000      0.142857142857
     -0.357142857143      0.428571428571      0.214285714286
     -0.285714285714      0.428571428571      0.214285714286
     -0.285714285714      0.500000000000      0.214285714286
      0.000000000000      0.071428571429      0.000000000000
      0.000000000000      0.000000000000      0.071428571429
     -0.071428571429     -0.071428571429     -0.071428571429
      0.000000000000      0.142857142857      0.000000000000
      0.000000000000      0.000000000000      0.142857142857
     -0.142857142857     -0.142857142857     -0.142857142857
      0.000000000000      0.214285714286      0.000000000000
      0.000000000000      0.000000000000      0.214285714286
     -0.214285714286     -0.214285714286     -0.214285714286
      0.000000000000      0.285714285714      0.000000000000
      0.000000000000      0.000000000000      0.285714285714
     -0.285714285714     -0.285714285714     -0.285714285714
      0.000000000000      0.357142857143      0.000000000000
      0.000000000000      0.000000000000      0.357142857143
     -0.357142857143     -0.357142857143     -0.357142857143
      0.000000000000      0.428571428571      0.000000000000
      0.000000000000      0.000000000000      0.428571428571
     -0.428571428571     -0.428571428571     -0.428571428571
      0.000000000000      0.500000000000      0.000000000000
      0.000000000000      0.000000000000      0.500000000000
     -0.500000000000     -0.500000000000     -0.500000000000
      0.000000000000      0.071428571429      0.071428571429
      0.071428571429      0.000000000000      0.071428571429
     -0.071428571429     -0.071428571429      0.000000000000
     -0.071428571429      0.000000000000     -0.071428571429
      0.000000000000     -0.071428571429     -0.071428571429
      0.000000000000      0.142857142857      0.071428571429
      0.071428571429      0.000000000000      0.142857142857
     -0.071428571429     -0.071428571429      0.071428571429
     -0.142857142857     -0.071428571429     -0.142857142857
      0.071428571429      0.142857142857      0.000000000000
      0.071428571429     -0.071428571429     -0.071428571429
     -0.142857142857     -0.142857142857     -0.071428571429
      0.000000000000      0.071428571429      0.142857142857
     -0.071428571429      0.071428571429     -0.071428571429
     -0.071428571429     -0.142857142857     -0.142857142857
      0.142857142857      0.000000000000      0.071428571429
      0.000000000000      0.214285714286      0.071428571429
      0.071428571429      0.000000000000      0.214285714286
     -0.071428571429     -0.071428571429      0.142857142857
     -0.214285714286     -0.142857142857     -0.214285714286
      0.071428571429      0.214285714286      0.000000000000
      0.142857142857     -0.071428571429     -0.071428571429
     -0.214285714286     -0.214285714286     -0.142857142857
      0.000000000000      0.071428571429      0.214285714286
     -0.071428571429      0.142857142857     -0.071428571429
     -0.142857142857     -0.214285714286     -0.214285714286
      0.214285714286      0.000000000000      0.071428571429
      0.000000000000      0.285714285714      0.071428571429
      0.071428571429      0.000000000000      0.285714285714
     -0.071428571429     -0.071428571429      0.214285714286
     -0.285714285714     -0.214285714286     -0.285714285714
      0.071428571429      0.285714285714      0.000000000000
      0.214285714286     -0.071428571429     -0.071428571429
     -0.285714285714     -0.285714285714     -0.214285714286
      0.000000000000      0.071428571429      0.285714285714
     -0.071428571429      0.214285714286     -0.071428571429
     -0.214285714286     -0.285714285714     -0.285714285714
      0.285714285714      0.000000000000      0.071428571429
      0.000000000000      0.357142857143      0.071428571429
      0.071428571429      0.000000000000      0.357142857143
     -0.071428571429     -0.071428571429      0.285714285714
     -0.357142857143     -0.285714285714     -0.357142857143
      0.071428571429      0.357142857143      0.000000000000
      0.285714285714     -0.071428571429     -0.071428571429
     -0.357142857143     -0.357142857143     -0.285714285714
      0.000000000000      0.071428571429      0.357142857143
     -0.071428571429      0.285714285714     -0.071428571429
     -0.285714285714     -0.357142857143     -0.357142857143
      0.357142857143      0.000000000000      0.071428571429
      0.000000000000      0.428571428571      0.071428571429
      0.071428571429      0.000000000000      0.428571428571
     -0.071428571429     -0.071428571429      0.357142857143
     -0.428571428571     -0.357142857143     -0.428571428571
      0.071428571429      0.428571428571      0.000000000000
      0.357142857143     -0.071428571429     -0.071428571429
     -0.428571428571     -0.428571428571     -0.357142857143
      0.000000000000      0.071428571429      0.428571428571
     -0.071428571429      0.357142857143     -0.071428571429
     -0.357142857143     -0.428571428571     -0.428571428571
      0.428571428571      0.000000000000      0.071428571429
      0.000000000000      0.500000000000      0.071428571429
      0.071428571429      0.000000000000      0.500000000000
     -0.071428571429     -0.071428571429      0.428571428571
     -0.500000000000     -0.428571428571     -0.500000000000
      0.071428571429      0.500000000000      0.000000000000
      0.428571428571     -0.071428571429     -0.071428571429
     -0.500000000000     -0.500000000000     -0.428571428571
      0.000000000000      0.071428571429      0.500000000000
     -0.071428571429      0.428571428571     -0.071428571429
     -0.428571428571     -0.500000000000     -0.500000000000
      0.500000000000      0.000000000000      0.071428571429
      0.000000000000     -0.428571428571      0.071428571429
      0.071428571429      0.000000000000     -0.428571428571
     -0.071428571429     -0.071428571429     -0.500000000000
      0.428571428571      0.500000000000      0.428571428571
      0.071428571429     -0.428571428571      0.000000000000
     -0.500000000000     -0.071428571429     -0.071428571429
      0.428571428571      0.428571428571      0.500000000000
      0.000000000000      0.071428571429     -0.428571428571
     -0.071428571429     -0.500000000000     -0.071428571429
      0.500000000000      0.428571428571      0.428571428571
     -0.428571428571      0.000000000000      0.071428571429
      0.000000000000     -0.357142857143      0.071428571429
      0.071428571429      0.000000000000     -0.357142857143
     -0.071428571429     -0.071428571429     -0.428571428571
      0.357142857143      0.428571428571      0.357142857143
      0.071428571429     -0.357142857143      0.000000000000
     -0.428571428571     -0.071428571429     -0.071428571429
      0.357142857143      0.357142857143      0.428571428571
      0.000000000000      0.071428571429     -0.357142857143
     -0.071428571429     -0.428571428571     -0.071428571429
      0.428571428571      0.357142857143      0.357142857143
     -0.357142857143      0.000000000000      0.071428571429
      0.000000000000     -0.285714285714      0.071428571429
      0.071428571429      0.000000000000     -0.285714285714
     -0.071428571429     -0.071428571429     -0.357142857143
      0.285714285714      0.357142857143      0.285714285714
      0.071428571429     -0.285714285714      0.000000000000
     -0.357142857143     -0.071428571429     -0.071428571429
      0.285714285714      0.285714285714      0.357142857143
      0.000000000000      0.071428571429     -0.285714285714
     -0.071428571429     -0.357142857143     -0.071428571429
      0.357142857143      0.285714285714      0.285714285714
     -0.285714285714      0.000000000000      0.071428571429
      0.000000000000     -0.214285714286      0.071428571429
      0.071428571429      0.000000000000     -0.214285714286
     -0.071428571429     -0.071428571429     -0.285714285714
      0.214285714286      0.285714285714      0.214285714286
      0.071428571429     -0.214285714286      0.000000000000
     -0.285714285714     -0.071428571429     -0.071428571429
      0.214285714286      0.214285714286      0.285714285714
      0.000000000000      0.071428571429     -0.214285714286
     -0.071428571429     -0.285714285714     -0.071428571429
      0.285714285714      0.214285714286      0.214285714286
     -0.214285714286      0.000000000000      0.071428571429
      0.000000000000     -0.142857142857      0.071428571429
      0.071428571429      0.000000000000     -0.142857142857
     -0.071428571429     -0.071428571429     -0.214285714286
      0.142857142857      0.214285714286      0.142857142857
      0.071428571429     -0.142857142857      0.000000000000
     -0.214285714286     -0.071428571429     -0.071428571429
      0.142857142857      0.142857142857      0.214285714286
      0.000000000000      0.071428571429     -0.142857142857
     -0.071428571429     -0.214285714286     -0.071428571429
      0.214285714286      0.142857142857      0.142857142857
     -0.142857142857      0.000000000000      0.071428571429
      0.000000000000     -0.071428571429      0.071428571429
      0.071428571429      0.000000000000     -0.071428571429
     -0.071428571429     -0.071428571429     -0.142857142857
      0.071428571429      0.142857142857      0.071428571429
      0.071428571429     -0.071428571429      0.000000000000
     -0.142857142857     -0.071428571429     -0.071428571429
      0.071428571429      0.071428571429      0.142857142857
      0.000000000000      0.071428571429     -0.071428571429
     -0.071428571429     -0.142857142857     -0.071428571429
      0.142857142857      0.071428571429      0.071428571429
     -0.071428571429      0.000000000000      0.071428571429
      0.000000000000      0.142857142857      0.142857142857
      0.142857142857      0.000000000000      0.142857142857
     -0.142857142857     -0.142857142857      0.000000000000
     -0.142857142857      0.000000000000     -0.142857142857
      0.000000000000     -0.142857142857     -0.142857142857
      0.000000000000      0.214285714286      0.142857142857
      0.142857142857      0.000000000000      0.214285714286
     -0.142857142857     -0.142857142857      0.071428571429
     -0.214285714286     -0.071428571429     -0.214285714286
      0.142857142857      0.214285714286      0.000000000000
      0.071428571429     -0.142857142857     -0.142857142857
     -0.214285714286     -0.214285714286     -0.071428571429
      0.000000000000      0.142857142857      0.214285714286
     -0.142857142857      0.071428571429     -0.142857142857
     -0.071428571429     -0.214285714286     -0.214285714286
      0.214285714286      0.000000000000      0.142857142857
      0.000000000000      0.285714285714      0.142857142857
      0.142857142857      0.000000000000      0.285714285714
     -0.142857142857     -0.142857142857      0.142857142857
     -0.285714285714     -0.142857142857     -0.285714285714
      0.142857142857      0.285714285714      0.000000000000
      0.142857142857     -0.142857142857     -0.142857142857
     -0.285714285714     -0.285714285714     -0.142857142857
      0.000000000000      0.142857142857      0.285714285714
     -0.142857142857      0.142857142857     -0.142857142857
     -0.142857142857     -0.285714285714     -0.285714285714
      0.285714285714      0.000000000000      0.142857142857
      0.000000000000      0.357142857143      0.142857142857
      0.142857142857      0.000000000000      0.357142857143
     -0.142857142857     -0.142857142857      0.214285714286
     -0.357142857143     -0.214285714286     -0.357142857143
      0.142857142857      0.357142857143      0.000000000000
      0.214285714286     -0.142857142857     -0.142857142857
     -0.357142857143     -0.357142857143     -0.214285714286
      0.000000000000      0.142857142857      0.357142857143
     -0.142857142857      0.214285714286     -0.142857142857
     -0.214285714286     -0.357142857143     -0.357142857143
      0.357142857143      0.000000000000      0.142857142857
      0.000000000000      0.428571428571      0.142857142857
      0.142857142857      0.000000000000      0.428571428571
     -0.142857142857     -0.142857142857      0.285714285714
     -0.428571428571     -0.285714285714     -0.428571428571
      0.142857142857      0.428571428571      0.000000000000
      0.285714285714     -0.142857142857     -0.142857142857
     -0.428571428571     -0.428571428571     -0.285714285714
      0.000000000000      0.142857142857      0.428571428571
     -0.142857142857      0.285714285714     -0.142857142857
     -0.285714285714     -0.428571428571     -0.428571428571
      0.428571428571      0.000000000000      0.142857142857
      0.000000000000      0.500000000000      0.142857142857
      0.142857142857      0.000000000000      0.500000000000
     -0.142857142857     -0.142857142857      0.357142857143
     -0.500000000000     -0.357142857143     -0.500000000000
      0.142857142857      0.500000000000      0.000000000000
      0.357142857143     -0.142857142857     -0.142857142857
     -0.500000000000     -0.500000000000     -0.357142857143
      0.000000000000      0.142857142857      0.500000000000
     -0.142857142857      0.357142857143     -0.142857142857
     -0.357142857143     -0.500000000000     -0.500000000000
      0.500000000000      0.000000000000      0.142857142857
      0.000000000000     -0.428571428571      0.142857142857
      0.142857142857      0.000000000000     -0.428571428571
     -0.142857142857     -0.142857142857     -0.571428571429
      0.428571428571      0.571428571429      0.428571428571
      0.142857142857     -0.428571428571      0.000000000000
     -0.571428571429     -0.142857142857     -0.142857142857
      0.428571428571      0.428571428571      0.571428571429
      0.000000000000      0.142857142857     -0.428571428571
     -0.142857142857     -0.571428571429     -0.142857142857
      0.571428571429      0.428571428571      0.428571428571
     -0.428571428571      0.000000000000      0.142857142857
      0.000000000000     -0.357142857143      0.142857142857
      0.142857142857      0.000000000000     -0.357142857143
     -0.142857142857     -0.142857142857     -0.500000000000
      0.357142857143      0.500000000000      0.357142857143
      0.142857142857     -0.357142857143      0.000000000000
     -0.500000000000     -0.142857142857     -0.142857142857
      0.357142857143      0.357142857143      0.500000000000
      0.000000000000      0.142857142857     -0.357142857143
     -0.142857142857     -0.500000000000     -0.142857142857
      0.500000000000      0.357142857143      0.357142857143
     -0.357142857143      0.000000000000      0.142857142857
      0.000000000000     -0.285714285714      0.142857142857
      0.142857142857      0.000000000000     -0.285714285714
     -0.142857142857     -0.142857142857     -0.428571428571
      0.285714285714      0.428571428571      0.285714285714
      0.142857142857     -0.285714285714      0.000000000000
     -0.428571428571     -0.142857142857     -0.142857142857
      0.285714285714      0.285714285714      0.428571428571
      0.000000000000      0.142857142857     -0.285714285714
     -0.142857142857     -0.428571428571     -0.142857142857
      0.428571428571      0.285714285714      0.285714285714
     -0.285714285714      0.000000000000      0.142857142857
      0.000000000000     -0.214285714286      0.142857142857
      0.142857142857      0.000000000000     -0.214285714286
     -0.142857142857     -0.142857142857     -0.357142857143
      0.214285714286      0.357142857143      0.214285714286
      0.142857142857     -0.214285714286      0.000000000000
     -0.357142857143     -0.142857142857     -0.142857142857
      0.214285714286      0.214285714286      0.357142857143
      0.000000000000      0.142857142857     -0.214285714286
     -0.142857142857     -0.357142857143     -0.142857142857
      0.357142857143      0.214285714286      0.214285714286
     -0.214285714286      0.000000000000      0.142857142857
      0.000000000000     -0.142857142857      0.142857142857
      0.142857142857      0.000000000000     -0.142857142857
     -0.142857142857     -0.142857142857     -0.285714285714
      0.142857142857      0.285714285714      0.142857142857
      0.142857142857     -0.142857142857      0.000000000000
     -0.285714285714     -0.142857142857     -0.142857142857
      0.142857142857      0.142857142857      0.285714285714
      0.000000000000      0.142857142857     -0.142857142857
     -0.142857142857     -0.285714285714     -0.142857142857
      0.285714285714      0.142857142857      0.142857142857
     -0.142857142857      0.000000000000      0.142857142857
      0.000000000000      0.214285714286      0.214285714286
      0.214285714286      0.000000000000      0.214285714286
     -0.214285714286     -0.214285714286      0.000000000000
     -0.214285714286      0.000000000000     -0.214285714286
      0.000000000000     -0.214285714286     -0.214285714286
      0.000000000000      0.285714285714      0.214285714286
      0.214285714286      0.000000000000      0.285714285714
     -0.214285714286     -0.214285714286      0.071428571429
     -0.285714285714     -0.071428571429     -0.285714285714
      0.214285714286      0.285714285714      0.000000000000
      0.071428571429     -0.214285714286     -0.214285714286
     -0.285714285714     -0.285714285714     -0.071428571429
      0.000000000000      0.214285714286      0.285714285714
     -0.214285714286      0.071428571429     -0.214285714286
     -0.071428571429     -0.285714285714     -0.285714285714
      0.285714285714      0.000000000000      0.214285714286
      0.000000000000      0.357142857143      0.214285714286
      0.214285714286      0.000000000000      0.357142857143
     -0.214285714286     -0.214285714286      0.142857142857
     -0.357142857143     -0.142857142857     -0.357142857143
      0.214285714286      0.357142857143      0.000000000000
      0.142857142857     -0.214285714286     -0.214285714286
     -0.357142857143     -0.357142857143     -0.142857142857
      0.000000000000      0.214285714286      0.357142857143
     -0.214285714286      0.142857142857     -0.214285714286
     -0.142857142857     -0.357142857143     -0.357142857143
      0.357142857143      0.000000000000      0.214285714286
      0.000000000000      0.428571428571      0.214285714286
      0.214285714286      0.000000000000      0.428571428571
     -0.214285714286     -0.214285714286      0.214285714286
     -0.428571428571     -0.214285714286     -0.428571428571
      0.214285714286      0.428571428571      0.000000000000
      0.214285714286     -0.214285714286     -0.214285714286
     -0.428571428571     -0.428571428571     -0.214285714286
      0.000000000000      0.214285714286      0.428571428571
     -0.214285714286      0.214285714286     -0.214285714286
     -0.214285714286     -0.428571428571     -0.428571428571
      0.428571428571      0.000000000000      0.214285714286
      0.000000000000      0.500000000000      0.214285714286
      0.214285714286      0.000000000000      0.500000000000
     -0.214285714286     -0.214285714286      0.285714285714
     -0.500000000000     -0.285714285714     -0.500000000000
      0.214285714286      0.500000000000      0.000000000000
      0.285714285714     -0.214285714286     -0.214285714286
     -0.500000000000     -0.500000000000     -0.285714285714
      0.000000000000      0.214285714286      0.500000000000
     -0.214285714286      0.285714285714     -0.214285714286
     -0.285714285714     -0.500000000000     -0.500000000000
      0.500000000000      0.000000000000      0.214285714286
      0.000000000000     -0.428571428571      0.214285714286
      0.214285714286      0.000000000000     -0.428571428571
     -0.214285714286     -0.214285714286     -0.642857142857
      0.428571428571      0.642857142857      0.428571428571
      0.214285714286     -0.428571428571      0.000000000000
     -0.642857142857     -0.214285714286     -0.214285714286
      0.428571428571      0.428571428571      0.642857142857
      0.000000000000      0.214285714286     -0.428571428571
     -0.214285714286     -0.642857142857     -0.214285714286
      0.642857142857      0.428571428571      0.428571428571
     -0.428571428571      0.000000000000      0.214285714286
      0.000000000000     -0.357142857143      0.214285714286
      0.214285714286      0.000000000000     -0.357142857143
     -0.214285714286     -0.214285714286     -0.571428571429
      0.357142857143      0.571428571429      0.357142857143
      0.214285714286     -0.357142857143      0.000000000000
     -0.571428571429     -0.214285714286     -0.214285714286
      0.357142857143      0.357142857143      0.571428571429
      0.000000000000      0.214285714286     -0.357142857143
     -0.214285714286     -0.571428571429     -0.214285714286
      0.571428571429      0.357142857143      0.357142857143
     -0.357142857143      0.000000000000      0.214285714286
      0.000000000000     -0.285714285714      0.214285714286
      0.214285714286      0.000000000000     -0.285714285714
     -0.214285714286     -0.214285714286     -0.500000000000
      0.285714285714      0.500000000000      0.285714285714
      0.214285714286     -0.285714285714      0.000000000000
     -0.500000000000     -0.214285714286     -0.214285714286
      0.285714285714      0.285714285714      0.500000000000
      0.000000000000      0.214285714286     -0.285714285714
     -0.214285714286     -0.500000000000     -0.214285714286
      0.500000000000      0.285714285714      0.285714285714
     -0.285714285714      0.000000000000      0.214285714286
      0.000000000000     -0.214285714286      0.214285714286
      0.214285714286      0.000000000000     -0.214285714286
     -0.214285714286     -0.214285714286     -0.428571428571
      0.214285714286      0.428571428571      0.214285714286
      0.214285714286     -0.214285714286      0.000000000000
     -0.428571428571     -0.214285714286     -0.214285714286
      0.214285714286      0.214285714286      0.428571428571
      0.000000000000      0.214285714286     -0.214285714286