K-Path for testing
10
Line-mode
Reciprocal
0.0 0.0 0.0 G
0.5 0.0 0.0 X
