Simple Test Cell
1.0
10.0 0.0 0.0
0.0 10.0 0.0
0.0 0.0 10.0
Si
1
Direct
0.0 0.0 0.0
