i0.5(co4 na4 o12 te2)
1.0
        5.2708997726         0.0000000000         0.0000000000
       -2.6354498863         4.5647331039         0.0000000000
        0.0000000000         0.0000000000        11.2615003586
     Co 
     4 
Direct
     0.000000000         0.000000000         0.749999979
     0.000000000         0.000000000         0.250000000
     0.333333372         0.666666673         0.749999979
     0.666666610         0.333333310         0.250000000
