num_bands= 99
num_wann =  20  ! set to NBANDS by VASP

DIS_WIN_MIN = 3.5
DIS_WIN_MAX = 7.0
DIS_FROZ_MIN = 4.00
DIS_FROZ_MAX = 6.5
dis_num_iter = 300
dis_mix_ratio = 0.5
exclude_bands= 81
guiding_centres= true
begin projections
Co  : l=2
end projections

bands_plot : true
bands_num_points : 100
bands_plot_format : xmgrace gnuplot
hr_plot = true
wannier_plot = TRUE

 NUM_ITER=0

  begin kpoint_path
  E  0.3333 0.3333  0.0  G 0.0  0.0   0.0

  G  0.0    0.0     0.0  S 0.0  0.5  0.0

  S 0.0     0.5     0.0  R 0.0  0.5  0.5

  R 0.0  0.5  0.5        Z 0.0  0.0  0.5

  Z 0.0  0.0  0.5        T -0.5 0.5 0.5

  T -0.5 0.5 0.5         Y -0.5 0.5 0.0

  Y -0.5 0.5 0.      C0 -0.3333  0.6667  0.0000

  end kpoint_path


begin unit_cell_cart
     5.2708998     0.0000000     0.0000000
    -2.6354499     4.5647331     0.0000000
     0.0000000     0.0000000    11.2615004
end unit_cell_cart

begin atoms_cart
Co       0.0000000     0.0000000     8.4461250
Co       0.0000000     0.0000000     2.8153751
Co       0.0000002     3.0431554     8.4461250
Co       2.6354496     1.5215776     2.8153751
Te       2.6354499     1.5215778     8.4461250
Te      -0.0000000     3.0431552     2.8153751
O        3.4519122     2.9250810     7.3852916
O        1.0117491     1.5269033     7.3852916
O        3.4426880     0.1127489     7.3852916
O       -0.8164624     1.6396521     1.7545419
O        1.6237007     3.0378299     1.7545419
O       -0.8072383     4.4519844     1.7545419
O        0.8072383     4.4519844     3.8762083
O        0.8164624     1.6396521     3.8762083
O       -1.6237006     3.0378299     3.8762083
O        1.8282115     0.1127489     9.5069590
O        1.8189874     2.9250810     9.5069590
O        4.2591505     1.5269033     9.5069590
Na       1.6866879     0.0000000     5.6307502
Na       4.4275558     1.4607146     5.6307502
Na       3.5842118     0.0000000     0.0000000
Na       3.4787939     3.1040185     0.0000000
end atoms_cart

mp_grid =     6     6     3

begin kpoints
      0.000000000000      0.000000000000      0.000000000000
      0.166666666667     -0.000000000000      0.000000000000
      0.333333333333     -0.000000000000      0.000000000000
      0.500000000000     -0.000000000000      0.000000000000
      0.166666666667      0.166666666667      0.000000000000
      0.333333333333      0.166666666667      0.000000000000
      0.500000000000      0.166666666667      0.000000000000
     -0.333333333333      0.166666666667      0.000000000000
     -0.166666666667      0.166666666667      0.000000000000
      0.333333333333      0.333333333333      0.000000000000
      0.500000000000      0.333333333333      0.000000000000
     -0.333333333333      0.333333333333      0.000000000000
      0.500000000000      0.500000000000      0.000000000000
      0.000000000000      0.000000000000      0.333333333333
      0.166666666667     -0.000000000000      0.333333333333
      0.333333333333     -0.000000000000      0.333333333333
      0.500000000000     -0.000000000000      0.333333333333
      0.166666666667      0.166666666667      0.333333333333
      0.333333333333      0.166666666667      0.333333333333
      0.500000000000      0.166666666667      0.333333333333
     -0.333333333333      0.166666666667      0.333333333333
     -0.166666666667      0.166666666667      0.333333333333
      0.333333333333      0.333333333333      0.333333333333
      0.500000000000      0.333333333333      0.333333333333
     -0.333333333333      0.333333333333      0.333333333333
      0.500000000000      0.500000000000      0.333333333333
     -0.000000000000      0.166666666667      0.000000000000
     -0.166666666667      0.000000000000      0.000000000000
      0.000000000000     -0.166666666667      0.000000000000
     -0.000000000000      0.333333333333      0.000000000000
     -0.333333333333      0.000000000000      0.000000000000
      0.000000000000     -0.333333333333      0.000000000000
     -0.000000000000      0.500000000000      0.000000000000
     -0.166666666667     -0.166666666667      0.000000000000
      0.166666666667      0.333333333333      0.000000000000
     -0.333333333333     -0.166666666667      0.000000000000
     -0.166666666667     -0.333333333333      0.000000000000
      0.166666666667      0.500000000000      0.000000000000
     -0.500000000000     -0.166666666667      0.000000000000
     -0.166666666667     -0.500000000000      0.000000000000
      0.166666666667     -0.333333333333      0.000000000000
      0.333333333333     -0.166666666667      0.000000000000
     -0.166666666667      0.333333333333      0.000000000000
      0.166666666667     -0.166666666667      0.000000000000
     -0.333333333333     -0.333333333333      0.000000000000
      0.333333333333      0.500000000000      0.000000000000
     -0.500000000000     -0.333333333333      0.000000000000
     -0.333333333333     -0.500000000000      0.000000000000
      0.333333333333     -0.333333333333      0.000000000000
      0.000000000000      0.000000000000     -0.333333333333
     -0.000000000000      0.166666666667     -0.333333333333
     -0.166666666667      0.000000000000      0.333333333333
      0.000000000000     -0.166666666667     -0.333333333333
     -0.000000000000      0.333333333333     -0.333333333333
     -0.333333333333      0.000000000000      0.333333333333
      0.000000000000     -0.333333333333     -0.333333333333
     -0.000000000000      0.500000000000     -0.333333333333
      0.166666666667      0.166666666667     -0.333333333333
     -0.166666666667     -0.166666666667      0.333333333333
     -0.166666666667     -0.166666666667     -0.333333333333
      0.166666666667      0.333333333333     -0.333333333333
     -0.333333333333     -0.166666666667      0.333333333333
     -0.166666666667     -0.333333333333     -0.333333333333
      0.166666666667      0.500000000000     -0.333333333333
     -0.500000000000     -0.166666666667      0.333333333333
     -0.166666666667     -0.500000000000     -0.333333333333
      0.166666666667     -0.333333333333     -0.333333333333
      0.333333333333     -0.166666666667      0.333333333333
     -0.166666666667      0.333333333333     -0.333333333333
      0.166666666667     -0.166666666667     -0.333333333333
      0.166666666667     -0.166666666667      0.333333333333
     -0.166666666667      0.166666666667     -0.333333333333
      0.333333333333      0.333333333333     -0.333333333333
     -0.333333333333     -0.333333333333      0.333333333333
     -0.333333333333     -0.333333333333     -0.333333333333
      0.333333333333      0.500000000000     -0.333333333333
     -0.500000000000     -0.333333333333      0.333333333333
     -0.333333333333     -0.500000000000     -0.333333333333
      0.333333333333     -0.333333333333     -0.333333333333
      0.333333333333     -0.333333333333      0.333333333333
     -0.333333333333      0.333333333333     -0.333333333333
      0.500000000000      0.500000000000     -0.333333333333
     -0.166666666667      0.000000000000     -0.333333333333
      0.000000000000     -0.166666666667      0.333333333333
      0.166666666667     -0.000000000000     -0.333333333333
     -0.000000000000      0.166666666667      0.333333333333
     -0.333333333333      0.000000000000     -0.333333333333
      0.000000000000     -0.333333333333      0.333333333333
      0.333333333333     -0.000000000000     -0.333333333333
     -0.000000000000      0.333333333333      0.333333333333
     -0.500000000000      0.000000000000     -0.333333333333
      0.000000000000     -0.500000000000      0.333333333333
     -0.333333333333     -0.166666666667     -0.333333333333
     -0.166666666667     -0.333333333333      0.333333333333
      0.333333333333      0.166666666667     -0.333333333333
      0.166666666667      0.333333333333      0.333333333333
     -0.500000000000     -0.166666666667     -0.333333333333
     -0.166666666667     -0.500000000000      0.333333333333
      0.500000000000      0.166666666667     -0.333333333333
      0.166666666667      0.500000000000      0.333333333333
      0.333333333333     -0.166666666667     -0.333333333333
     -0.166666666667      0.333333333333      0.333333333333
     -0.333333333333      0.166666666667     -0.333333333333
      0.166666666667     -0.333333333333      0.333333333333
     -0.500000000000     -0.333333333333     -0.333333333333
     -0.333333333333     -0.500000000000      0.333333333333
      0.500000000000      0.333333333333     -0.333333333333
      0.333333333333      0.500000000000      0.333333333333
end kpoints
